75
3 0 3
3 1 1
4 1 4
4 2 3
5 0 1
5 3 5
5 4 5
6 0 4
6 3 4
7 1 3
7 2 1
7 4 5
7 6 1
8 0 2
8 2 2
8 4 5
8 5 3
9 1 2
9 2 1
9 3 1
9 5 2
9 6 5
9 8 3
10 3 2
10 4 1
10 5 1
10 6 3
10 7 3
10 8 3
10 9 4
11 0 4
11 1 1
11 4 3
11 5 1
11 8 3
11 10 1
12 0 1
12 3 3
12 8 3
12 10 5
13 0 2
13 1 2
13 5 5
13 12 5
14 2 3
14 5 2
14 6 2
14 8 1
14 9 3
14 11 4
15 0 5
15 1 3
15 2 3
15 4 3
15 6 1
15 8 3
15 10 2
15 11 2
15 12 4
15 14 5
16 1 4
16 5 3
16 7 3
16 8 3
16 9 2
16 10 2
16 12 4
16 15 4
17 0 4
17 1 5
17 3 3
17 6 1
17 8 1
17 9 3
17 10 3
17 11 1
17 12 2
17 13 5
17 14 4
17 16 4
18 1 5
18 2 2
18 5 2
18 6 1
18 9 3
18 10 2
18 11 3
18 12 3
18 14 1
18 15 1
18 16 5
19 4 5
19 6 4
19 9 5
19 10 1
19 13 1
19 15 3
19 16 2
19 18 1
20 0 1
20 2 4
20 9 2
20 12 5
20 13 5
20 15 2
20 19 3
21 0 4
21 3 4
21 6 4
21 7 3
21 10 3
21 12 2
21 15 5
21 16 5
21 17 1
21 18 1
22 5 1
22 8 4
22 10 3
22 11 4
22 13 4
22 15 5
22 18 3
22 21 1
23 0 5
23 2 4
23 3 4
23 4 2
23 5 4
23 7 4
23 17 1
23 18 4
23 19 4
23 21 3
24 0 3
24 1 5
24 5 3
24 8 2
24 14 4
24 15 5
24 18 2
24 19 1
24 20 4
24 21 3
25 3 5
25 6 2
25 10 4
25 11 5
25 13 1
25 14 2
25 15 1
25 19 3
25 22 3
25 24 3
26 0 5
26 2 3
26 3 2
26 7 3
26 10 3
26 11 4
26 12 1
26 17 1
26 18 2
26 19 2
26 21 4
26 22 2
26 24 2
26 25 3
27 1 5
27 2 3
27 4 1
27 5 3
27 7 1
27 12 5
27 14 1
27 15 1
27 16 3
27 17 5
27 18 5
27 20 5
27 22 5
27 23 3
27 26 2
28 0 2
28 1 2
28 4 3
28 6 1
28 8 2
28 10 4
28 12 4
28 13 4
28 14 3
28 15 5
28 17 4
28 18 1
28 23 5
28 26 2
29 2 5
29 3 3
29 4 1
29 7 1
29 8 5
29 10 2
29 12 4
29 14 4
29 15 1
29 17 5
29 19 2
29 20 5
29 21 4
29 24 2
29 25 2
29 26 1
29 27 4
29 28 5
30 0 3
30 5 5
30 9 1
30 14 3
30 15 3
30 16 2
30 18 3
30 19 2
30 22 3
30 23 3
30 27 1
31 6 5
31 7 2
31 12 4
31 14 5
31 16 4
31 17 5
31 19 5
31 20 2
31 21 4
31 22 5
31 23 4
31 27 1
31 28 3
31 30 3
32 1 5
32 4 1
32 6 2
32 7 4
32 8 1
32 9 5
32 12 4
32 13 3
32 17 1
32 18 5
32 20 1
32 21 2
32 22 5
32 25 3
32 27 1
32 28 2
32 31 2
33 3 1
33 4 2
33 5 5
33 6 4
33 8 3
33 9 5
33 13 5
33 14 4
33 16 4
33 20 1
33 21 3
33 23 3
33 26 5
34 0 2
34 1 2
34 3 4
34 5 3
34 13 5
34 15 1
34 16 5
34 17 3
34 18 2
34 19 4
34 20 2
34 21 1
34 26 2
34 28 2
34 30 4
34 31 1
34 32 4
35 0 4
35 3 3
35 4 5
35 5 4
35 6 2
35 7 3
35 9 5
35 10 3
35 11 1
35 12 5
35 15 1
35 17 5
35 20 4
35 21 2
35 22 1
35 25 2
35 28 5
35 30 5
35 32 2
35 33 3
35 34 5
36 1 1
36 2 1
36 3 4
36 4 5
36 9 3
36 10 1
36 11 2
36 16 3
36 17 1
36 20 1
36 23 2
36 24 2
36 29 4
36 30 2
36 31 4
36 35 4
37 0 3
37 1 4
37 2 1
37 3 5
37 4 5
37 6 2
37 8 1
37 9 3
37 10 1
37 12 2
37 13 5
37 14 3
37 15 5
37 16 5
37 17 2
37 20 4
37 21 4
37 22 4
37 23 1
37 24 5
37 26 5
37 30 3
37 31 5
37 32 1
37 35 3
38 3 3
38 4 5
38 5 2
38 6 5
38 7 3
38 9 5
38 10 5
38 12 4
38 14 5
38 15 4
38 16 4
38 17 2
38 19 5
38 20 2
38 21 3
38 22 1
38 25 1
38 28 1
38 30 3
38 32 4
38 33 3
38 34 5
38 35 1
38 37 4
39 4 3
39 7 4
39 10 3
39 11 4
39 13 4
39 14 3
39 15 1
39 18 1
39 20 3
39 25 3
39 29 1
39 30 1
39 35 3
39 37 5
40 1 4
40 2 3
40 5 2
40 10 3
40 13 3
40 14 5
40 17 1
40 20 3
40 21 3
40 25 5
40 26 4
40 27 1
40 30 1
40 31 3
40 32 3
40 33 1
40 34 5
41 2 3
41 4 1
41 5 4
41 7 4
41 8 1
41 9 4
41 10 5
41 13 1
41 14 5
41 15 1
41 16 4
41 17 5
41 20 1
41 22 2
41 23 1
41 24 3
41 25 2
41 29 3
41 31 4
41 33 2
41 35 2
41 36 5
41 37 1
41 38 4
42 6 1
42 8 2
42 10 1
42 12 2
42 14 5
42 19 3
42 20 5
42 21 5
42 22 4
42 25 5
42 27 2
42 30 1
42 31 3
42 32 4
42 33 1
42 34 4
42 35 5
42 36 1
42 38 5
43 2 4
43 3 1
43 4 1
43 5 5
43 6 2
43 9 1
43 10 1
43 12 4
43 13 4
43 19 2
43 21 2
43 24 3
43 25 1
43 26 1
43 27 5
43 28 3
43 31 3
43 34 2
43 36 2
43 37 3
43 39 1
43 40 4
43 41 1
44 0 1
44 4 3
44 6 3
44 8 5
44 9 1
44 10 2
44 11 1
44 12 5
44 15 2
44 16 3
44 17 5
44 18 1
44 19 3
44 21 2
44 22 1
44 23 4
44 24 1
44 25 3
44 27 3
44 28 1
44 33 3
44 36 1
44 37 4
44 39 3
44 40 5
44 41 5
45 2 3
45 3 5
45 5 1
45 6 3
45 8 3
45 9 2
45 10 5
45 12 5
45 17 4
45 19 3
45 20 2
45 21 5
45 25 3
45 26 4
45 27 1
45 30 1
45 31 3
45 32 3
45 33 3
45 34 3
45 37 2
45 38 1
45 40 3
45 41 2
45 42 3
46 0 4
46 8 4
46 11 1
46 13 5
46 16 3
46 18 4
46 19 2
46 20 3
46 21 4
46 22 2
46 25 1
46 26 4
46 28 1
46 31 4
46 32 4
46 33 5
46 34 1
46 36 4
46 41 2
46 44 4
47 6 3
47 7 5
47 11 3
47 12 3
47 13 3
47 15 3
47 16 3
47 17 5
47 18 3
47 19 1
47 24 2
47 25 2
47 28 3
47 29 5
47 31 4
47 32 3
47 41 4
47 42 1
47 44 3
48 1 1
48 3 4
48 4 2
48 9 5
48 10 5
48 11 4
48 12 4
48 16 5
48 17 3
48 22 4
48 24 2
48 26 2
48 27 4
48 28 1
48 29 5
48 30 3
48 32 5
48 37 3
48 38 3
48 39 1
48 42 5
48 43 1
48 47 5
49 3 3
49 4 3
49 6 3
49 8 2
49 9 5
49 11 4
49 12 1
49 14 3
49 21 5
49 22 3
49 27 5
49 29 3
49 30 5
49 31 5
49 32 5
49 33 1
49 34 1
49 35 3
49 37 3
49 38 3
49 41 4
49 42 3
49 43 5
49 46 4
49 47 1
49 48 1
50 2 3
50 5 1
50 6 2
50 7 5
50 9 1
50 10 1
50 11 5
50 13 3
50 15 1
50 16 5
50 17 1
50 20 4
50 27 3
50 29 5
50 30 3
50 34 3
50 35 3
50 37 3
50 39 5
50 40 1
50 41 2
50 44 5
50 45 5
50 46 1
50 48 1
51 0 2
51 4 3
51 5 2
51 9 2
51 10 4
51 14 1
51 19 5
51 20 5
51 21 1
51 22 1
51 24 1
51 28 5
51 29 2
51 31 2
51 35 1
51 36 3
51 38 1
51 39 5
51 40 5
51 41 4
51 43 5
51 47 1
51 50 5
52 2 2
52 4 2
52 6 3
52 7 1
52 8 3
52 9 1
52 12 4
52 13 1
52 14 3
52 15 3
52 18 1
52 21 2
52 22 1
52 23 5
52 24 2
52 25 5
52 27 1
52 30 3
52 31 2
52 34 4
52 35 5
52 36 1
52 39 4
52 40 5
52 45 2
52 46 1
52 49 1
52 50 5
53 0 4
53 1 4
53 2 2
53 3 4
53 4 5
53 5 5
53 7 5
53 10 1
53 13 3
53 14 1
53 17 3
53 21 2
53 22 4
53 24 2
53 25 2
53 28 1
53 30 1
53 32 3
53 33 1
53 35 5
53 38 5
53 39 5
53 40 3
53 42 4
53 43 5
53 44 2
53 45 3
53 46 3
53 50 4
53 51 4
53 52 1
54 0 1
54 1 3
54 2 4
54 4 4
54 6 4
54 7 3
54 9 3
54 11 5
54 13 5
54 16 1
54 17 2
54 18 5
54 20 5
54 21 5
54 23 2
54 24 4
54 25 1
54 27 2
54 29 2
54 30 2
54 31 5
54 33 2
54 34 2
54 35 1
54 37 4
54 38 5
54 41 5
54 43 5
54 45 4
54 46 2
54 48 4
54 49 1
54 50 3
54 51 1
55 4 4
55 5 3
55 8 5
55 9 2
55 10 3
55 11 3
55 13 3
55 15 1
55 16 3
55 20 2
55 21 2
55 22 4
55 23 3
55 25 3
55 26 3
55 28 3
55 29 3
55 33 4
55 34 1
55 37 2
55 40 5
55 42 3
55 45 4
55 49 3
55 50 2
55 52 1
55 53 3
55 54 1
56 0 2
56 3 1
56 7 3
56 10 1
56 11 5
56 15 3
56 16 2
56 17 2
56 19 1
56 21 1
56 22 1
56 24 5
56 26 4
56 27 2
56 31 3
56 32 1
56 34 5
56 36 3
56 37 4
56 38 2
56 39 2
56 41 5
56 42 5
56 46 5
56 47 4
56 48 5
56 49 3
56 52 3
56 53 1
56 54 2
57 0 1
57 4 2
57 6 3
57 7 2
57 11 4
57 12 1
57 13 4
57 14 4
57 17 4
57 19 1
57 20 2
57 22 1
57 25 1
57 26 5
57 27 5
57 30 1
57 31 2
57 35 3
57 36 4
57 37 5
57 38 1
57 41 2
57 42 3
57 43 4
57 47 4
57 51 3
57 53 1
58 0 4
58 4 3
58 6 3
58 7 4
58 9 5
58 11 4
58 12 4
58 13 3
58 15 1
58 16 5
58 18 3
58 21 2
58 22 2
58 25 5
58 26 5
58 27 1
58 28 3
58 34 4
58 36 1
58 37 4
58 41 4
58 42 1
58 43 1
58 44 2
58 45 4
58 47 4
58 48 3
58 49 5
58 50 2
58 51 4
58 53 5
58 54 2
58 56 5
59 0 3
59 3 5
59 5 2
59 9 1
59 12 1
59 14 1
59 17 4
59 20 2
59 21 2
59 24 2
59 25 5
59 26 1
59 29 4
59 30 4
59 31 1
59 32 4
59 33 1
59 35 2
59 36 5
59 37 1
59 38 1
59 40 4
59 41 2
59 42 3
59 45 1
59 47 5
59 48 2
59 53 4
59 56 3
59 57 2
59 58 3
60 1 3
60 2 4
60 3 5
60 4 5
60 5 4
60 8 5
60 9 5
60 11 1
60 12 5
60 13 3
60 14 4
60 15 2
60 19 1
60 21 3
60 22 2
60 24 1
60 27 3
60 28 3
60 29 5
60 33 1
60 34 2
60 36 5
60 40 4
60 42 3
60 43 2
60 46 4
60 48 3
60 51 4
60 52 5
60 54 4
60 56 5
61 0 5
61 2 2
61 3 2
61 6 5
61 9 3
61 11 5
61 13 3
61 18 4
61 19 1
61 20 4
61 23 5
61 27 5
61 29 2
61 31 5
61 32 5
61 33 1
61 34 3
61 36 5
61 38 4
61 40 2
61 43 1
61 44 2
61 46 1
61 47 3
61 48 5
61 49 2
61 51 2
61 53 1
61 54 5
61 55 5
61 58 2
61 59 5
62 7 3
62 8 5
62 9 2
62 13 1
62 15 5
62 17 5
62 20 4
62 24 5
62 26 2
62 28 3
62 29 1
62 31 2
62 32 3
62 33 5
62 34 2
62 36 2
62 40 5
62 42 2
62 45 1
62 46 2
62 47 1
62 48 1
62 49 5
62 50 5
62 51 1
62 52 3
62 54 4
62 55 4
62 57 1
62 59 1
62 60 5
62 61 5
63 1 1
63 2 2
63 3 5
63 4 3
63 7 3
63 8 3
63 10 5
63 12 3
63 14 3
63 17 3
63 19 1
63 20 5
63 21 4
63 23 2
63 26 1
63 28 4
63 29 3
63 30 5
63 32 3
63 33 5
63 34 4
63 37 5
63 38 3
63 40 2
63 44 1
63 47 4
63 51 2
63 53 4
63 55 1
63 57 2
63 59 5
63 60 1
63 61 1
64 1 4
64 2 2
64 3 5
64 5 1
64 9 4
64 11 2
64 14 1
64 16 3
64 17 5
64 19 4
64 21 2
64 22 3
64 24 1
64 28 5
64 30 2
64 31 2
64 32 3
64 36 4
64 39 1
64 40 1
64 41 5
64 42 2
64 44 3
64 48 4
64 49 2
64 50 1
64 53 3
64 54 2
64 56 1
64 57 2
64 59 5
64 60 1
64 62 4
64 63 1
65 0 3
65 3 4
65 4 3
65 5 1
65 6 3
65 8 5
65 9 5
65 14 3
65 15 3
65 16 1
65 17 3
65 19 4
65 20 5
65 23 4
65 24 2
65 28 5
65 29 4
65 31 1
65 32 4
65 33 3
65 34 2
65 35 1
65 36 1
65 45 2
65 46 2
65 48 1
65 49 2
65 51 2
65 53 4
65 54 4
65 56 1
65 60 4
65 61 2
65 62 2
65 64 5
66 2 1
66 3 3
66 8 2
66 12 3
66 13 1
66 15 2
66 19 2
66 21 4
66 22 5
66 23 5
66 30 5
66 31 3
66 32 2
66 33 3
66 35 1
66 37 1
66 38 1
66 39 5
66 40 2
66 42 5
66 43 2
66 45 4
66 47 1
66 48 5
66 50 5
66 51 5
66 52 5
66 54 5
66 57 2
66 58 1
66 59 1
66 60 3
66 61 5
66 62 3
66 63 5
66 64 1
66 65 5
67 1 1
67 3 1
67 4 4
67 5 1
67 9 1
67 10 1
67 12 2
67 14 1
67 15 3
67 18 4
67 19 1
67 20 2
67 25 3
67 27 1
67 28 1
67 31 5
67 32 2
67 36 4
67 37 3
67 38 3
67 42 5
67 46 2
67 48 1
67 50 4
67 52 1
67 53 1
67 54 3
67 56 4
67 57 3
67 58 3
67 59 3
67 61 2
67 66 3
68 1 5
68 4 2
68 8 3
68 9 5
68 10 1
68 12 5
68 13 2
68 14 5
68 17 5
68 18 2
68 23 2
68 25 3
68 28 4
68 29 3
68 30 4
68 31 1
68 32 4
68 33 3
68 35 2
68 36 2
68 39 5
68 42 5
68 43 4
68 44 4
68 46 5
68 47 3
68 48 3
68 51 3
68 53 4
68 54 5
68 55 4
68 56 1
68 57 1
68 58 2
68 60 5
68 61 2
68 62 4
68 64 4
68 66 3
69 1 4
69 4 3
69 5 2
69 6 1
69 7 2
69 8 3
69 12 1
69 17 3
69 20 4
69 21 3
69 22 4
69 23 3
69 24 2
69 27 3
69 31 1
69 33 1
69 36 5
69 37 3
69 40 2
69 42 3
69 43 1
69 45 5
69 46 3
69 48 4
69 49 4
69 50 4
69 52 4
69 55 1
69 56 3
69 57 4
69 58 1
69 59 2
69 60 4
69 61 5
69 62 1
69 63 3
69 64 1
69 65 3
69 68 5
70 1 3
70 3 1
70 4 2
70 5 5
70 7 1
70 12 2
70 17 2
70 18 1
70 19 5
70 22 3
70 24 2
70 25 3
70 27 2
70 28 2
70 30 4
70 31 3
70 33 3
70 34 1
70 36 3
70 37 5
70 39 1
70 43 2
70 45 4
70 48 1
70 51 2
70 52 5
70 55 3
70 56 4
70 60 5
70 61 5
70 62 5
70 64 2
71 0 5
71 1 2
71 2 1
71 4 1
71 6 5
71 11 4
71 13 2
71 14 2
71 15 1
71 17 4
71 19 1
71 21 4
71 22 2
71 23 5
71 28 3
71 29 4
71 31 1
71 33 2
71 37 4
71 46 4
71 47 2
71 48 3
71 54 2
71 55 4
71 56 4
71 60 5
71 61 3
71 68 1
71 70 5
72 0 4
72 1 5
72 4 5
72 5 3
72 6 4
72 9 3
72 10 1
72 14 5
72 15 3
72 17 4
72 19 5
72 21 5
72 22 5
72 23 1
72 25 2
72 26 3
72 27 4
72 30 4
72 31 2
72 33 5
72 36 2
72 37 4
72 38 5
72 43 1
72 44 5
72 45 4
72 47 2
72 48 5
72 49 3
72 51 4
72 57 2
72 60 5
72 61 2
72 62 3
72 63 4
72 66 1
72 67 5
72 69 3
72 71 3
73 0 1
73 2 4
73 4 3
73 8 4
73 9 5
73 10 1
73 11 5
73 14 2
73 16 1
73 17 1
73 18 3
73 20 1
73 24 3
73 26 5
73 31 2
73 32 3
73 34 5
73 35 3
73 36 2
73 38 3
73 40 3
73 41 1
73 42 4
73 43 1
73 44 5
73 49 4
73 50 4
73 52 2
73 53 5
73 54 3
73 56 3
73 57 5
73 59 3
73 63 1
73 64 3
73 66 4
73 68 3
73 69 5
73 70 2
73 71 1
74 0 5
74 4 3
74 5 4
74 8 3
74 11 3
74 13 2
74 14 4
74 15 1
74 16 1
74 17 5
74 19 4
74 20 3
74 22 2
74 24 5
74 25 1
74 26 3
74 31 5
74 33 5
74 36 1
74 38 2
74 39 3
74 40 2
74 41 4
74 42 1
74 44 4
74 45 1
74 46 1
74 48 4
74 52 4
74 53 1
74 55 5
74 58 4
74 60 5
74 64 2
74 65 4
74 67 4
74 70 1
74 71 5
